
Gurobi 8.1.1 (mac64, Python) logging started Wed Oct 30 20:54:10 2019

Academic license - for non-commercial use only
Optimize a model with 0 rows, 64 columns and 0 nonzeros
Coefficient statistics:
  Matrix range     [0e+00, 0e+00]
  Objective range  [0e+00, 0e+00]
  Bounds range     [0e+00, 0e+00]
  RHS range        [0e+00, 0e+00]
Presolve removed 0 rows and 64 columns
Presolve time: 0.03s
Presolve: All rows and columns removed
Iteration    Objective       Primal Inf.    Dual Inf.      Time
       0    0.0000000e+00   0.000000e+00   0.000000e+00      0s

Solved in 0 iterations and 0.05 seconds
Optimal objective  0.000000000e+00
Optimize a model with 0 rows, 64 columns and 0 nonzeros
Coefficient statistics:
  Matrix range     [0e+00, 0e+00]
  Objective range  [0e+00, 0e+00]
  Bounds range     [0e+00, 0e+00]
  RHS range        [0e+00, 0e+00]

Solved in 0 iterations and 0.01 seconds
Optimal objective  0.000000000e+00
Optimize a model with 0 rows, 64 columns and 0 nonzeros
Coefficient statistics:
  Matrix range     [0e+00, 0e+00]
  Objective range  [1e+00, 8e+00]
  Bounds range     [0e+00, 0e+00]
  RHS range        [0e+00, 0e+00]
Iteration    Objective       Primal Inf.    Dual Inf.      Time
       0    0.0000000e+00   0.000000e+00   0.000000e+00      0s

Solved in 0 iterations and 0.03 seconds
Optimal objective  0.000000000e+00
Warning: variables 0 and 64 have the same name "x00"
Warning: to let Gurobi read it back, use rlp format
Optimize a model with 0 rows, 128 columns and 0 nonzeros
Coefficient statistics:
  Matrix range     [0e+00, 0e+00]
  Objective range  [1e+00, 8e+00]
  Bounds range     [0e+00, 0e+00]
  RHS range        [0e+00, 0e+00]
Iteration    Objective       Primal Inf.    Dual Inf.      Time
       0    0.0000000e+00   0.000000e+00   0.000000e+00      0s

Solved in 0 iterations and 0.01 seconds
Optimal objective  0.000000000e+00
Warning: variables 0 and 64 have the same name "x00"
Warning: to let Gurobi read it back, use rlp format
Optimize a model with 0 rows, 128 columns and 0 nonzeros
Coefficient statistics:
  Matrix range     [0e+00, 0e+00]
  Objective range  [1e+00, 8e+00]
  Bounds range     [0e+00, 0e+00]
  RHS range        [0e+00, 0e+00]
Iteration    Objective       Primal Inf.    Dual Inf.      Time
       0    0.0000000e+00   0.000000e+00   0.000000e+00      0s

Solved in 0 iterations and 0.01 seconds
Optimal objective  0.000000000e+00
Warning: variables 0 and 64 have the same name "x00"
Warning: to let Gurobi read it back, use rlp format
Optimize a model with 8 rows, 128 columns and 32 nonzeros
Coefficient statistics:
  Matrix range     [1e+00, 1e+00]
  Objective range  [1e+00, 8e+00]
  Bounds range     [0e+00, 0e+00]
  RHS range        [1e+00, 1e+00]
Iteration    Objective       Primal Inf.    Dual Inf.      Time
       0    0.0000000e+00   2.000000e+00   0.000000e+00      0s
       5    8.0000000e+00   0.000000e+00   0.000000e+00      0s

Solved in 5 iterations and 0.02 seconds
Optimal objective  8.000000000e+00

Gurobi 8.1.1 (mac64, Python) logging started Fri Nov  1 00:24:02 2019

Academic license - for non-commercial use only
Optimize a model with 0 rows, 0 columns and 0 nonzeros
Coefficient statistics:
  Matrix range     [0e+00, 0e+00]
  Objective range  [0e+00, 0e+00]
  Bounds range     [0e+00, 0e+00]
  RHS range        [0e+00, 0e+00]
Presolve time: 0.02s
Presolve: All rows and columns removed
Iteration    Objective       Primal Inf.    Dual Inf.      Time
       0    0.0000000e+00   0.000000e+00   0.000000e+00      0s

Solved in 0 iterations and 0.03 seconds
Optimal objective  0.000000000e+00
Optimize a model with 0 rows, 0 columns and 0 nonzeros
Coefficient statistics:
  Matrix range     [0e+00, 0e+00]
  Objective range  [0e+00, 0e+00]
  Bounds range     [0e+00, 0e+00]
  RHS range        [0e+00, 0e+00]

Solved in 0 iterations and 0.01 seconds
Optimal objective  0.000000000e+00
Optimize a model with 8 rows, 64 columns and 32 nonzeros
Coefficient statistics:
  Matrix range     [1e+00, 1e+00]
  Objective range  [1e+00, 8e+00]
  Bounds range     [0e+00, 0e+00]
  RHS range        [1e+00, 1e+00]
Presolve removed 2 rows and 52 columns
Presolve time: 0.01s
Presolved: 6 rows, 12 columns, 24 nonzeros

Iteration    Objective       Primal Inf.    Dual Inf.      Time
       0    3.9920000e+00   1.503000e+00   0.000000e+00      0s
       3    8.0000000e+00   0.000000e+00   0.000000e+00      0s

Solved in 3 iterations and 0.02 seconds
Optimal objective  8.000000000e+00

Gurobi 8.1.1 (mac64, Python) logging started Fri Nov  1 03:41:09 2019

Academic license - for non-commercial use only
Optimize a model with 26 rows, 160 columns and 320 nonzeros
Coefficient statistics:
  Matrix range     [1e+00, 1e+00]
  Objective range  [0e+00, 0e+00]
  Bounds range     [1e+01, 1e+01]
  RHS range        [1e+01, 4e+02]
Presolve removed 26 rows and 160 columns
Presolve time: 0.02s
Presolve: All rows and columns removed
Iteration    Objective       Primal Inf.    Dual Inf.      Time
       0    0.0000000e+00   0.000000e+00   0.000000e+00      0s

Solved in 0 iterations and 0.03 seconds
Optimal objective  0.000000000e+00

Gurobi 8.1.1 (mac64, Python) logging started Fri Nov  1 03:46:59 2019

Academic license - for non-commercial use only
Optimize a model with 26 rows, 160 columns and 320 nonzeros
Coefficient statistics:
  Matrix range     [1e+00, 1e+00]
  Objective range  [0e+00, 0e+00]
  Bounds range     [1e+01, 1e+01]
  RHS range        [1e+01, 4e+02]
Presolve removed 26 rows and 160 columns
Presolve time: 0.01s
Presolve: All rows and columns removed
Iteration    Objective       Primal Inf.    Dual Inf.      Time
       0    0.0000000e+00   0.000000e+00   0.000000e+00      0s

Solved in 0 iterations and 0.01 seconds
Optimal objective  0.000000000e+00

Gurobi 8.1.1 (mac64, Python) logging started Fri Nov  1 03:47:25 2019

Academic license - for non-commercial use only

Gurobi 8.1.1 (mac64, Python) logging started Fri Nov  1 03:47:59 2019

Academic license - for non-commercial use only
Optimize a model with 16 rows, 0 columns and 0 nonzeros
Coefficient statistics:
  Matrix range     [0e+00, 0e+00]
  Objective range  [0e+00, 0e+00]
  Bounds range     [0e+00, 0e+00]
  RHS range        [1e+01, 4e+02]
Presolve time: 0.01s

Solved in 0 iterations and 0.01 seconds
Infeasible model
Optimize a model with 16 rows, 0 columns and 0 nonzeros
Coefficient statistics:
  Matrix range     [0e+00, 0e+00]
  Objective range  [0e+00, 0e+00]
  Bounds range     [0e+00, 0e+00]
  RHS range        [1e+01, 4e+02]
Presolve time: 0.01s

Solved in 0 iterations and 0.01 seconds
Infeasible model
Optimize a model with 16 rows, 0 columns and 0 nonzeros
Coefficient statistics:
  Matrix range     [0e+00, 0e+00]
  Objective range  [0e+00, 0e+00]
  Bounds range     [0e+00, 0e+00]
  RHS range        [1e+01, 4e+02]
Presolve time: 0.01s

Solved in 0 iterations and 0.01 seconds
Infeasible model
Optimize a model with 1 rows, 0 columns and 0 nonzeros
Coefficient statistics:
  Matrix range     [0e+00, 0e+00]
  Objective range  [0e+00, 0e+00]
  Bounds range     [0e+00, 0e+00]
  RHS range        [0e+00, 0e+00]
Presolve removed 1 rows and 0 columns
Presolve time: 0.01s
Presolve: All rows and columns removed
Iteration    Objective       Primal Inf.    Dual Inf.      Time
       0    0.0000000e+00   0.000000e+00   0.000000e+00      0s

Solved in 0 iterations and 0.02 seconds
Optimal objective  0.000000000e+00
Optimize a model with 1 rows, 0 columns and 0 nonzeros
Coefficient statistics:
  Matrix range     [0e+00, 0e+00]
  Objective range  [0e+00, 0e+00]
  Bounds range     [0e+00, 0e+00]
  RHS range        [0e+00, 0e+00]
Presolve removed 1 rows and 0 columns
Presolve time: 0.01s
Presolve: All rows and columns removed
Iteration    Objective       Primal Inf.    Dual Inf.      Time
       0    0.0000000e+00   0.000000e+00   0.000000e+00      0s

Solved in 0 iterations and 0.01 seconds
Optimal objective  0.000000000e+00
Warning: variables 0 and 160 have the same name "x01"
Warning: linear constraint 0 and linear constraint 16 have the same name "t0"
Warning: to let Gurobi read it back, use rlp format
Optimize a model with 42 rows, 320 columns and 320 nonzeros
Coefficient statistics:
  Matrix range     [1e+00, 1e+00]
  Objective range  [0e+00, 0e+00]
  Bounds range     [1e+01, 1e+01]
  RHS range        [1e+01, 4e+02]
Presolve time: 0.01s

Solved in 0 iterations and 0.01 seconds
Infeasible model
Optimize a model with 26 rows, 160 columns and 320 nonzeros
Coefficient statistics:
  Matrix range     [1e+00, 1e+00]
  Objective range  [1e-02, 1e+00]
  Bounds range     [1e+01, 1e+01]
  RHS range        [1e+01, 4e+02]
Presolve removed 10 rows and 12 columns
Presolve time: 0.01s
Presolved: 16 rows, 148 columns, 296 nonzeros

Iteration    Objective       Primal Inf.    Dual Inf.      Time
       0    1.1288000e+02   1.315000e+02   0.000000e+00      0s
      15    1.8127000e+02   0.000000e+00   0.000000e+00      0s

Solved in 15 iterations and 0.02 seconds
Optimal objective  1.812700000e+02
Optimize a model with 26 rows, 160 columns and 320 nonzeros
Coefficient statistics:
  Matrix range     [1e+00, 1e+00]
  Objective range  [1e-02, 1e+00]
  Bounds range     [1e+01, 1e+01]
  RHS range        [1e+01, 4e+02]
Presolve removed 10 rows and 12 columns
Presolve time: 0.01s
Presolved: 16 rows, 148 columns, 296 nonzeros

Iteration    Objective       Primal Inf.    Dual Inf.      Time
       0    1.1288000e+02   1.315000e+02   0.000000e+00      0s
      15    1.8127000e+02   0.000000e+00   0.000000e+00      0s

Solved in 15 iterations and 0.02 seconds
Optimal objective  1.812700000e+02
Optimize a model with 0 rows, 160 columns and 0 nonzeros
Coefficient statistics:
  Matrix range     [0e+00, 0e+00]
  Objective range  [1e-02, 1e+00]
  Bounds range     [1e+01, 1e+01]
  RHS range        [0e+00, 0e+00]
Presolve removed 0 rows and 160 columns
Presolve time: 0.01s
Presolve: All rows and columns removed
Iteration    Objective       Primal Inf.    Dual Inf.      Time
       0    0.0000000e+00   0.000000e+00   0.000000e+00      0s

Solved in 0 iterations and 0.02 seconds
Optimal objective  0.000000000e+00
Optimize a model with 0 rows, 160 columns and 0 nonzeros
Coefficient statistics:
  Matrix range     [0e+00, 0e+00]
  Objective range  [1e-02, 1e+00]
  Bounds range     [1e+01, 1e+01]
  RHS range        [0e+00, 0e+00]

Solved in 0 iterations and 0.01 seconds
Optimal objective  0.000000000e+00
Optimize a model with 26 rows, 160 columns and 320 nonzeros
Coefficient statistics:
  Matrix range     [1e+00, 1e+00]
  Objective range  [1e-02, 1e+00]
  Bounds range     [1e+01, 1e+01]
  RHS range        [1e+01, 4e+02]
Iteration    Objective       Primal Inf.    Dual Inf.      Time
       0    0.0000000e+00   6.195000e+02   0.000000e+00      0s
      28    1.8127000e+02   0.000000e+00   0.000000e+00      0s

Solved in 28 iterations and 0.02 seconds
Optimal objective  1.812700000e+02

Gurobi 8.1.1 (mac64, Python) logging started Fri Nov  1 04:18:49 2019

Academic license - for non-commercial use only
Optimize a model with 26 rows, 160 columns and 320 nonzeros
Coefficient statistics:
  Matrix range     [1e+00, 1e+00]
  Objective range  [1e-02, 1e+00]
  Bounds range     [1e+01, 1e+01]
  RHS range        [1e+01, 4e+02]
Presolve removed 10 rows and 12 columns
Presolve time: 0.01s
Presolved: 16 rows, 148 columns, 296 nonzeros

Iteration    Objective       Primal Inf.    Dual Inf.      Time
       0    1.1288000e+02   1.315000e+02   0.000000e+00      0s
      15    1.8127000e+02   0.000000e+00   0.000000e+00      0s

Solved in 15 iterations and 0.03 seconds
Optimal objective  1.812700000e+02
Warning: linear constraint 0 and linear constraint 26 have the same name "t0"
Optimize a model with 82 rows, 160 columns and 940 nonzeros
Coefficient statistics:
  Matrix range     [1e+00, 1e+00]
  Objective range  [1e-02, 1e+00]
  Bounds range     [1e+01, 1e+01]
  RHS range        [1e+01, 4e+02]
Iteration    Objective       Primal Inf.    Dual Inf.      Time
       0    1.8127000e+02   0.000000e+00   0.000000e+00      0s

Solved in 0 iterations and 0.01 seconds
Optimal objective  1.812700000e+02
Warning: linear constraint 0 and linear constraint 26 have the same name "t0"
Optimize a model with 108 rows, 160 columns and 1260 nonzeros
Coefficient statistics:
  Matrix range     [1e+00, 1e+00]
  Objective range  [1e-02, 1e+00]
  Bounds range     [1e+01, 1e+01]
  RHS range        [1e+01, 6e+02]
Iteration    Objective       Primal Inf.    Dual Inf.      Time
       0    1.8127000e+02   0.000000e+00   0.000000e+00      0s

Solved in 0 iterations and 0.01 seconds
Optimal objective  1.812700000e+02
Warning: linear constraint 0 and linear constraint 26 have the same name "t0"
Optimize a model with 134 rows, 160 columns and 1580 nonzeros
Coefficient statistics:
  Matrix range     [1e+00, 1e+00]
  Objective range  [1e-02, 1e+00]
  Bounds range     [1e+01, 1e+01]
  RHS range        [1e+01, 6e+02]
Iteration    Objective       Primal Inf.    Dual Inf.      Time
       0    1.8127000e+02   0.000000e+00   0.000000e+00      0s

Solved in 0 iterations and 0.01 seconds
Optimal objective  1.812700000e+02
Warning: linear constraint 0 and linear constraint 26 have the same name "t0"
Optimize a model with 186 rows, 160 columns and 2220 nonzeros
Coefficient statistics:
  Matrix range     [1e+00, 1e+00]
  Objective range  [1e-02, 1e+00]
  Bounds range     [1e+01, 1e+01]
  RHS range        [1e+01, 6e+02]
Iteration    Objective       Primal Inf.    Dual Inf.      Time
       0    1.8127000e+02   1.340000e+02   0.000000e+00      0s

Solved in 0 iterations and 0.01 seconds
Infeasible model
Warning: linear constraint 0 and linear constraint 26 have the same name "t0"
Optimize a model with 212 rows, 160 columns and 2540 nonzeros
Coefficient statistics:
  Matrix range     [1e+00, 1e+00]
  Objective range  [1e-02, 1e+00]
  Bounds range     [1e+01, 1e+01]
  RHS range        [1e+01, 6e+02]
Iteration    Objective       Primal Inf.    Dual Inf.      Time
       0    1.8127000e+02   1.340000e+02   0.000000e+00      0s

Solved in 0 iterations and 0.01 seconds
Infeasible model
Optimize a model with 26 rows, 160 columns and 320 nonzeros
Coefficient statistics:
  Matrix range     [1e+00, 1e+00]
  Objective range  [1e-02, 1e+00]
  Bounds range     [1e+01, 1e+01]
  RHS range        [1e+01, 6e+02]
Presolve removed 10 rows and 12 columns
Presolve time: 0.01s
Presolved: 16 rows, 148 columns, 296 nonzeros

Iteration    Objective       Primal Inf.    Dual Inf.      Time
       0    1.1288000e+02   1.315000e+02   0.000000e+00      0s
      15    1.8127000e+02   0.000000e+00   0.000000e+00      0s

Solved in 15 iterations and 0.02 seconds
Optimal objective  1.812700000e+02
Optimize a model with 52 rows, 160 columns and 640 nonzeros
Coefficient statistics:
  Matrix range     [1e+00, 1e+00]
  Objective range  [1e-02, 1e+00]
  Bounds range     [1e+01, 1e+01]
  RHS range        [1e+01, 6e+02]
Iteration    Objective       Primal Inf.    Dual Inf.      Time
       0    1.8127000e+02   1.340000e+02   0.000000e+00      0s

Solved in 0 iterations and 0.01 seconds
Infeasible model
Optimize a model with 78 rows, 160 columns and 960 nonzeros
Coefficient statistics:
  Matrix range     [1e+00, 1e+00]
  Objective range  [1e-02, 1e+00]
  Bounds range     [1e+01, 1e+01]
  RHS range        [1e+01, 6e+02]
Iteration    Objective       Primal Inf.    Dual Inf.      Time
       0    1.8127000e+02   2.680000e+02   0.000000e+00      0s

Solved in 0 iterations and 0.01 seconds
Infeasible model
Optimize a model with 26 rows, 160 columns and 320 nonzeros
Coefficient statistics:
  Matrix range     [1e+00, 1e+00]
  Objective range  [1e-02, 1e+00]
  Bounds range     [1e+01, 1e+01]
  RHS range        [4e+01, 6e+02]
Presolve removed 10 rows and 12 columns
Presolve time: 0.01s
Presolved: 16 rows, 148 columns, 296 nonzeros

Iteration    Objective       Primal Inf.    Dual Inf.      Time
       0    1.9530000e+02   2.925000e+02   0.000000e+00      0s

Solved in 15 iterations and 0.02 seconds
Infeasible model
Optimize a model with 52 rows, 160 columns and 640 nonzeros
Coefficient statistics:
  Matrix range     [1e+00, 1e+00]
  Objective range  [1e-02, 1e+00]
  Bounds range     [1e+01, 1e+01]
  RHS range        [1e+01, 6e+02]
Presolve time: 0.01s

Solved in 0 iterations and 0.01 seconds
Infeasible model
Optimize a model with 26 rows, 160 columns and 320 nonzeros
Coefficient statistics:
  Matrix range     [1e+00, 1e+00]
  Objective range  [1e-02, 1e+00]
  Bounds range     [1e+01, 1e+01]
  RHS range        [1e+01, 6e+02]
Presolve removed 10 rows and 12 columns
Presolve time: 0.01s
Presolved: 16 rows, 148 columns, 296 nonzeros

Iteration    Objective       Primal Inf.    Dual Inf.      Time
       0    1.1288000e+02   1.315000e+02   0.000000e+00      0s
      15    1.8127000e+02   0.000000e+00   0.000000e+00      0s

Solved in 15 iterations and 0.02 seconds
Optimal objective  1.812700000e+02
Optimize a model with 52 rows, 160 columns and 2410 nonzeros
Coefficient statistics:
  Matrix range     [1e+00, 1e+00]
  Objective range  [1e-02, 1e+00]
  Bounds range     [1e+01, 1e+01]
  RHS range        [1e+01, 6e+02]
Iteration    Objective       Primal Inf.    Dual Inf.      Time
       0    1.8127000e+02   1.353000e+03   0.000000e+00      0s

Solved in 0 iterations and 0.01 seconds
Infeasible model
Optimize a model with 26 rows, 160 columns and 2090 nonzeros
Coefficient statistics:
  Matrix range     [1e+00, 1e+00]
  Objective range  [1e-02, 1e+00]
  Bounds range     [1e+01, 1e+01]
  RHS range        [1e+01, 6e+02]
Presolve time: 0.01s
Presolved: 26 rows, 160 columns, 2090 nonzeros

Iteration    Objective       Primal Inf.    Dual Inf.      Time
       0    5.4000000e-01   1.525000e+02   0.000000e+00      0s

Solved in 2 iterations and 0.02 seconds
Infeasible model
Optimize a model with 29 rows, 160 columns and 2410 nonzeros
Coefficient statistics:
  Matrix range     [1e+00, 1e+00]
  Objective range  [1e-02, 1e+00]
  Bounds range     [1e+01, 1e+01]
  RHS range        [1e+01, 6e+02]
Iteration    Objective       Primal Inf.    Dual Inf.      Time
       0    1.4600000e+00   3.570000e+02   0.000000e+00      0s

Solved in 0 iterations and 0.01 seconds
Infeasible model
Optimize a model with 55 rows, 160 columns and 2730 nonzeros
Coefficient statistics:
  Matrix range     [1e+00, 1e+00]
  Objective range  [1e-02, 1e+00]
  Bounds range     [1e+01, 1e+01]
  RHS range        [1e+01, 6e+02]
Iteration    Objective       Primal Inf.    Dual Inf.      Time
       0    1.4600000e+00   5.795000e+02   0.000000e+00      0s

Solved in 0 iterations and 0.01 seconds
Infeasible model
Optimize a model with 26 rows, 160 columns and 320 nonzeros
Coefficient statistics:
  Matrix range     [1e+00, 1e+00]
  Objective range  [1e-02, 1e+00]
  Bounds range     [1e+01, 1e+01]
  RHS range        [1e+01, 6e+02]
Presolve removed 10 rows and 12 columns
Presolve time: 0.01s
Presolved: 16 rows, 148 columns, 296 nonzeros

Iteration    Objective       Primal Inf.    Dual Inf.      Time
       0    1.1288000e+02   1.315000e+02   0.000000e+00      0s
      15    1.8127000e+02   0.000000e+00   0.000000e+00      0s

Solved in 15 iterations and 0.02 seconds
Optimal objective  1.812700000e+02
Optimize a model with 26 rows, 160 columns and 320 nonzeros
Coefficient statistics:
  Matrix range     [1e+00, 1e+00]
  Objective range  [1e-02, 1e+00]
  Bounds range     [1e+01, 1e+01]
  RHS range        [1e+01, 6e+02]
Presolve removed 10 rows and 12 columns
Presolve time: 0.01s
Presolved: 16 rows, 148 columns, 296 nonzeros

Iteration    Objective       Primal Inf.    Dual Inf.      Time
       0    1.1288000e+02   1.315000e+02   0.000000e+00      0s
      15    1.8127000e+02   0.000000e+00   0.000000e+00      0s

Solved in 15 iterations and 0.02 seconds
Optimal objective  1.812700000e+02
Optimize a model with 8 rows, 64 columns and 32 nonzeros
Coefficient statistics:
  Matrix range     [1e+00, 1e+00]
  Objective range  [1e+00, 8e+00]
  Bounds range     [0e+00, 0e+00]
  RHS range        [1e+00, 1e+00]
Presolve removed 2 rows and 52 columns
Presolve time: 0.01s
Presolved: 6 rows, 12 columns, 24 nonzeros

Iteration    Objective       Primal Inf.    Dual Inf.      Time
       0    3.9920000e+00   1.503000e+00   0.000000e+00      0s
       3    8.0000000e+00   0.000000e+00   0.000000e+00      0s

Solved in 3 iterations and 0.02 seconds
Optimal objective  8.000000000e+00
